evaluation/problems/talent-scheduling/talent-scheduling.fzn
array [1..6] of int: X_INTRODUCED_31 = [1,2,3,4,5,6];
array [1..2] of int: X_INTRODUCED_108 = [1,-1];
array [1..2] of int: X_INTRODUCED_110 = [-1,1];
array [1..4] of int: X_INTRODUCED_192 = [1,-2,-3,-4];
array [1..4] of int: X_INTRODUCED_211 = [1,-3,-5,-6];
array [1..4] of int: X_INTRODUCED_227 = [1,-1,-4,-6];
array [1..4] of int: X_INTRODUCED_243 = [1,-1,-2,-5];
array [1..3] of int: X_INTRODUCED_245 = [-1,-1,1];
array [1..5] of int: X_INTRODUCED_255 = [1,-1,-1,-1,-1];
array [1..6] of int: X_INTRODUCED_268 = [1,-2,-1,-1,-1,-1];
var 1..6: X_INTRODUCED_0;
var 1..6: X_INTRODUCED_1;
var 1..6: X_INTRODUCED_2;
var 1..6: X_INTRODUCED_3;
var 1..6: X_INTRODUCED_4;
var 1..6: X_INTRODUCED_5;
var 1..6: X_INTRODUCED_6;
var 1..6: X_INTRODUCED_7;
var 1..6: X_INTRODUCED_8;
var 1..6: X_INTRODUCED_9;
var 1..6: X_INTRODUCED_10;
var 1..6: X_INTRODUCED_11;
var 0..9: X_INTRODUCED_20:: is_defined_var;
var 0..14: X_INTRODUCED_21:: is_defined_var;
var 0..11: X_INTRODUCED_22:: is_defined_var;
var 0..8: X_INTRODUCED_23:: is_defined_var;
var bool: X_INTRODUCED_24:: is_defined_var;
var bool: X_INTRODUCED_25:: is_defined_var;
var bool: X_INTRODUCED_26:: is_defined_var;
var bool: X_INTRODUCED_27:: is_defined_var;
var bool: X_INTRODUCED_28;
var 1..6: X_INTRODUCED_30 ::var_is_introduced :: is_defined_var;
var 1..6: X_INTRODUCED_33 ::var_is_introduced :: is_defined_var;
var 2..12: X_INTRODUCED_34 ::var_is_introduced :: is_defined_var;
var 1..6: X_INTRODUCED_36 ::var_is_introduced :: is_defined_var;
var 3..18: X_INTRODUCED_37 ::var_is_introduced :: is_defined_var;
var 1..6: X_INTRODUCED_39 ::var_is_introduced :: is_defined_var;
var 4..21: X_INTRODUCED_40 ::var_is_introduced :: is_defined_var;
var 1..6: X_INTRODUCED_42 ::var_is_introduced :: is_defined_var;
var 5..21: X_INTRODUCED_43 ::var_is_introduced :: is_defined_var;
var 1..6: X_INTRODUCED_45 ::var_is_introduced :: is_defined_var;
var 6..21: X_INTRODUCED_46 ::var_is_introduced :: is_defined_var;
var 0..21: X_INTRODUCED_48 ::var_is_introduced :: is_defined_var;
var 0..21: X_INTRODUCED_50 ::var_is_introduced :: is_defined_var;
var 0..21: X_INTRODUCED_52 ::var_is_introduced :: is_defined_var;
var 0..21: X_INTRODUCED_54 ::var_is_introduced :: is_defined_var;
var 2..7: X_INTRODUCED_56 ::var_is_introduced :: is_defined_var;
var 0..21: X_INTRODUCED_58 ::var_is_introduced :: is_defined_var;
var 2..7: X_INTRODUCED_59 ::var_is_introduced :: is_defined_var;
var 0..21: X_INTRODUCED_61 ::var_is_introduced :: is_defined_var;
var 2..7: X_INTRODUCED_62 ::var_is_introduced :: is_defined_var;
var 0..21: X_INTRODUCED_64 ::var_is_introduced :: is_defined_var;
var 2..7: X_INTRODUCED_65 ::var_is_introduced :: is_defined_var;
var 0..21: X_INTRODUCED_67 ::var_is_introduced :: is_defined_var;
var 42..84: cost:: output_var:: is_defined_var;
var bool: X_INTRODUCED_70 ::var_is_introduced :: is_defined_var;
var bool: X_INTRODUCED_71 ::var_is_introduced :: is_defined_var;
var bool: X_INTRODUCED_72 ::var_is_introduced :: is_defined_var;
var bool: X_INTRODUCED_73 ::var_is_introduced :: is_defined_var;
var bool: X_INTRODUCED_74 ::var_is_introduced :: is_defined_var;
var bool: X_INTRODUCED_75 ::var_is_introduced :: is_defined_var;
var bool: X_INTRODUCED_76 ::var_is_introduced :: is_defined_var;
var bool: X_INTRODUCED_77 ::var_is_introduced :: is_defined_var;
var bool: X_INTRODUCED_78 ::var_is_introduced :: is_defined_var;
var bool: X_INTRODUCED_79 ::var_is_introduced :: is_defined_var;
var bool: X_INTRODUCED_80 ::var_is_introduced :: is_defined_var;
var bool: X_INTRODUCED_81 ::var_is_introduced :: is_defined_var;
var bool: X_INTRODUCED_82 ::var_is_introduced :: is_defined_var;
var bool: X_INTRODUCED_83 ::var_is_introduced :: is_defined_var;
var bool: X_INTRODUCED_84 ::var_is_introduced :: is_defined_var;
var bool: X_INTRODUCED_85 ::var_is_introduced :: is_defined_var;
var bool: X_INTRODUCED_86 ::var_is_introduced :: is_defined_var;
var bool: X_INTRODUCED_87 ::var_is_introduced :: is_defined_var;
var bool: X_INTRODUCED_88 ::var_is_introduced :: is_defined_var;
var bool: X_INTRODUCED_89 ::var_is_introduced :: is_defined_var;
var bool: X_INTRODUCED_90 ::var_is_introduced :: is_defined_var;
var bool: X_INTRODUCED_91 ::var_is_introduced :: is_defined_var;
var bool: X_INTRODUCED_92 ::var_is_introduced :: is_defined_var;
var bool: X_INTRODUCED_93 ::var_is_introduced :: is_defined_var;
var bool: X_INTRODUCED_94 ::var_is_introduced :: is_defined_var;
var bool: X_INTRODUCED_95 ::var_is_introduced :: is_defined_var;
var bool: X_INTRODUCED_96 ::var_is_introduced :: is_defined_var;
var bool: X_INTRODUCED_97 ::var_is_introduced :: is_defined_var;
var bool: X_INTRODUCED_98 ::var_is_introduced :: is_defined_var;
var bool: X_INTRODUCED_99 ::var_is_introduced :: is_defined_var;
var bool: X_INTRODUCED_100 ::var_is_introduced :: is_defined_var;
var bool: X_INTRODUCED_101 ::var_is_introduced :: is_defined_var;
var bool: X_INTRODUCED_102 ::var_is_introduced :: is_defined_var;
var bool: X_INTRODUCED_103 ::var_is_introduced :: is_defined_var;
var bool: X_INTRODUCED_104 ::var_is_introduced :: is_defined_var;
var bool: X_INTRODUCED_105 ::var_is_introduced :: is_defined_var;
var 1..6: X_INTRODUCED_116 ::var_is_introduced ;
var 1..6: X_INTRODUCED_117 ::var_is_introduced ;
var 1..6: X_INTRODUCED_123 ::var_is_introduced ;
var 1..6: X_INTRODUCED_124 ::var_is_introduced ;
var 1..6: X_INTRODUCED_132 ::var_is_introduced ;
var 1..6: X_INTRODUCED_133 ::var_is_introduced ;
var 1..6: X_INTRODUCED_139 ::var_is_introduced ;
var 1..6: X_INTRODUCED_140 ::var_is_introduced ;
var 1..6: X_INTRODUCED_148 ::var_is_introduced ;
var 1..6: X_INTRODUCED_149 ::var_is_introduced ;
var 1..6: X_INTRODUCED_155 ::var_is_introduced ;
var 1..6: X_INTRODUCED_156 ::var_is_introduced ;
var 1..6: X_INTRODUCED_164 ::var_is_introduced ;
var 1..6: X_INTRODUCED_165 ::var_is_introduced ;
var 1..6: X_INTRODUCED_171 ::var_is_introduced ;
var 1..6: X_INTRODUCED_172 ::var_is_introduced ;
var bool: X_INTRODUCED_173 ::var_is_introduced :: is_defined_var;
var bool: X_INTRODUCED_174 ::var_is_introduced :: is_defined_var;
var bool: X_INTRODUCED_175 ::var_is_introduced :: is_defined_var;
var 0..1: X_INTRODUCED_176 ::var_is_introduced :: is_defined_var;
var bool: X_INTRODUCED_179 ::var_is_introduced :: is_defined_var;
var bool: X_INTRODUCED_180 ::var_is_introduced :: is_defined_var;
var bool: X_INTRODUCED_181 ::var_is_introduced :: is_defined_var;
var 0..1: X_INTRODUCED_182 ::var_is_introduced :: is_defined_var;
var bool: X_INTRODUCED_185 ::var_is_introduced :: is_defined_var;
var bool: X_INTRODUCED_186 ::var_is_introduced :: is_defined_var;
var bool: X_INTRODUCED_187 ::var_is_introduced :: is_defined_var;
var 0..1: X_INTRODUCED_188 ::var_is_introduced :: is_defined_var;
var bool: X_INTRODUCED_193 ::var_is_introduced :: is_defined_var;
var bool: X_INTRODUCED_194 ::var_is_introduced :: is_defined_var;
var bool: X_INTRODUCED_195 ::var_is_introduced :: is_defined_var;
var 0..1: X_INTRODUCED_196 ::var_is_introduced :: is_defined_var;
var bool: X_INTRODUCED_198 ::var_is_introduced :: is_defined_var;
var bool: X_INTRODUCED_199 ::var_is_introduced :: is_defined_var;
var bool: X_INTRODUCED_200 ::var_is_introduced :: is_defined_var;
var 0..1: X_INTRODUCED_201 ::var_is_introduced :: is_defined_var;
var bool: X_INTRODUCED_204 ::var_is_introduced :: is_defined_var;
var bool: X_INTRODUCED_205 ::var_is_introduced :: is_defined_var;
var bool: X_INTRODUCED_206 ::var_is_introduced :: is_defined_var;
var 0..1: X_INTRODUCED_207 ::var_is_introduced :: is_defined_var;
var bool: X_INTRODUCED_212 ::var_is_introduced :: is_defined_var;
var bool: X_INTRODUCED_213 ::var_is_introduced :: is_defined_var;
var bool: X_INTRODUCED_214 ::var_is_introduced :: is_defined_var;
var 0..1: X_INTRODUCED_215 ::var_is_introduced :: is_defined_var;
var bool: X_INTRODUCED_216 ::var_is_introduced :: is_defined_var;
var bool: X_INTRODUCED_217 ::var_is_introduced :: is_defined_var;
var bool: X_INTRODUCED_218 ::var_is_introduced :: is_defined_var;
var 0..1: X_INTRODUCED_219 ::var_is_introduced :: is_defined_var;
var bool: X_INTRODUCED_221 ::var_is_introduced :: is_defined_var;
var bool: X_INTRODUCED_222 ::var_is_introduced :: is_defined_var;
var bool: X_INTRODUCED_223 ::var_is_introduced :: is_defined_var;
var 0..1: X_INTRODUCED_224 ::var_is_introduced :: is_defined_var;
var bool: X_INTRODUCED_228 ::var_is_introduced :: is_defined_var;
var bool: X_INTRODUCED_229 ::var_is_introduced :: is_defined_var;
var bool: X_INTRODUCED_230 ::var_is_introduced :: is_defined_var;
var 0..1: X_INTRODUCED_231 ::var_is_introduced :: is_defined_var;
var bool: X_INTRODUCED_232 ::var_is_introduced :: is_defined_var;
var bool: X_INTRODUCED_233 ::var_is_introduced :: is_defined_var;
var bool: X_INTRODUCED_234 ::var_is_introduced :: is_defined_var;
var 0..1: X_INTRODUCED_235 ::var_is_introduced :: is_defined_var;
var bool: X_INTRODUCED_237 ::var_is_introduced :: is_defined_var;
var bool: X_INTRODUCED_238 ::var_is_introduced :: is_defined_var;
var bool: X_INTRODUCED_239 ::var_is_introduced :: is_defined_var;
var 0..1: X_INTRODUCED_240 ::var_is_introduced :: is_defined_var;
var 0..6: penSum:: output_var:: is_defined_var;
var bool: X_INTRODUCED_256 ::var_is_introduced :: is_defined_var;
var bool: X_INTRODUCED_257 ::var_is_introduced :: is_defined_var;
var bool: X_INTRODUCED_258 ::var_is_introduced :: is_defined_var;
var bool: X_INTRODUCED_259 ::var_is_introduced :: is_defined_var;
var bool: X_INTRODUCED_260 ::var_is_introduced :: is_defined_var;
var 0..1: X_INTRODUCED_261 ::var_is_introduced :: is_defined_var;
var 0..1: X_INTRODUCED_263 ::var_is_introduced :: is_defined_var;
var 0..1: X_INTRODUCED_264 ::var_is_introduced :: is_defined_var;
var 0..1: X_INTRODUCED_265 ::var_is_introduced :: is_defined_var;
var 0..1: X_INTRODUCED_266 ::var_is_introduced :: is_defined_var;
array [1..6] of var int: s:: output_array([1..6]) = [X_INTRODUCED_0,X_INTRODUCED_1,X_INTRODUCED_2,X_INTRODUCED_3,X_INTRODUCED_4,X_INTRODUCED_5];
array [1..6] of var int: slot:: output_array([1..6]) = [X_INTRODUCED_6,X_INTRODUCED_7,X_INTRODUCED_8,X_INTRODUCED_9,X_INTRODUCED_10,X_INTRODUCED_11];
array [1..4] of var int: firstSlot:: output_array([1..4]) = [X_INTRODUCED_124,X_INTRODUCED_140,X_INTRODUCED_156,X_INTRODUCED_172];
array [1..4] of var int: lastSlot:: output_array([1..4]) = [X_INTRODUCED_117,X_INTRODUCED_133,X_INTRODUCED_149,X_INTRODUCED_165];
array [1..4] of var int: wait:: output_array([1..4]) = [X_INTRODUCED_20,X_INTRODUCED_21,X_INTRODUCED_22,X_INTRODUCED_23];
array [1..7] of var int: cumDur = [0,X_INTRODUCED_30,X_INTRODUCED_34,X_INTRODUCED_37,X_INTRODUCED_40,X_INTRODUCED_43,X_INTRODUCED_46];
array [1..4] of var int: firstJob = [X_INTRODUCED_48,X_INTRODUCED_50,X_INTRODUCED_52,X_INTRODUCED_54];
array [1..4] of var int: lastJob = [X_INTRODUCED_58,X_INTRODUCED_61,X_INTRODUCED_64,X_INTRODUCED_67];
constraint array_int_element(X_INTRODUCED_0,X_INTRODUCED_31,X_INTRODUCED_30):: defines_var(X_INTRODUCED_30);
constraint array_int_element(X_INTRODUCED_1,X_INTRODUCED_31,X_INTRODUCED_33):: defines_var(X_INTRODUCED_33);
constraint array_int_element(X_INTRODUCED_2,X_INTRODUCED_31,X_INTRODUCED_36):: defines_var(X_INTRODUCED_36);
constraint array_int_element(X_INTRODUCED_3,X_INTRODUCED_31,X_INTRODUCED_39):: defines_var(X_INTRODUCED_39);
constraint array_int_element(X_INTRODUCED_4,X_INTRODUCED_31,X_INTRODUCED_42):: defines_var(X_INTRODUCED_42);
constraint array_int_element(X_INTRODUCED_5,X_INTRODUCED_31,X_INTRODUCED_45):: defines_var(X_INTRODUCED_45);
constraint array_var_int_element(X_INTRODUCED_124,cumDur,X_INTRODUCED_48):: defines_var(X_INTRODUCED_48);
constraint array_var_int_element(X_INTRODUCED_140,cumDur,X_INTRODUCED_50):: defines_var(X_INTRODUCED_50);
constraint array_var_int_element(X_INTRODUCED_156,cumDur,X_INTRODUCED_52):: defines_var(X_INTRODUCED_52);
constraint array_var_int_element(X_INTRODUCED_172,cumDur,X_INTRODUCED_54):: defines_var(X_INTRODUCED_54);
constraint array_var_int_element(X_INTRODUCED_56,cumDur,X_INTRODUCED_58):: defines_var(X_INTRODUCED_58);
constraint array_var_int_element(X_INTRODUCED_59,cumDur,X_INTRODUCED_61):: defines_var(X_INTRODUCED_61);
constraint array_var_int_element(X_INTRODUCED_62,cumDur,X_INTRODUCED_64):: defines_var(X_INTRODUCED_64);
constraint array_var_int_element(X_INTRODUCED_65,cumDur,X_INTRODUCED_67):: defines_var(X_INTRODUCED_67);
constraint int_eq_reif(X_INTRODUCED_6,1,X_INTRODUCED_70):: defines_var(X_INTRODUCED_70);
constraint int_eq_reif(X_INTRODUCED_7,1,X_INTRODUCED_71):: defines_var(X_INTRODUCED_71);
constraint int_eq_reif(X_INTRODUCED_8,1,X_INTRODUCED_72):: defines_var(X_INTRODUCED_72);
constraint int_eq_reif(X_INTRODUCED_9,1,X_INTRODUCED_73):: defines_var(X_INTRODUCED_73);
constraint int_eq_reif(X_INTRODUCED_10,1,X_INTRODUCED_74):: defines_var(X_INTRODUCED_74);
constraint int_eq_reif(X_INTRODUCED_11,1,X_INTRODUCED_75):: defines_var(X_INTRODUCED_75);
constraint int_eq_reif(X_INTRODUCED_6,2,X_INTRODUCED_76):: defines_var(X_INTRODUCED_76);
constraint int_eq_reif(X_INTRODUCED_7,2,X_INTRODUCED_77):: defines_var(X_INTRODUCED_77);
constraint int_eq_reif(X_INTRODUCED_8,2,X_INTRODUCED_78):: defines_var(X_INTRODUCED_78);
constraint int_eq_reif(X_INTRODUCED_9,2,X_INTRODUCED_79):: defines_var(X_INTRODUCED_79);
constraint int_eq_reif(X_INTRODUCED_10,2,X_INTRODUCED_80):: defines_var(X_INTRODUCED_80);
constraint int_eq_reif(X_INTRODUCED_11,2,X_INTRODUCED_81):: defines_var(X_INTRODUCED_81);
constraint int_eq_reif(X_INTRODUCED_6,3,X_INTRODUCED_82):: defines_var(X_INTRODUCED_82);
constraint int_eq_reif(X_INTRODUCED_7,3,X_INTRODUCED_83):: defines_var(X_INTRODUCED_83);
constraint int_eq_reif(X_INTRODUCED_8,3,X_INTRODUCED_84):: defines_var(X_INTRODUCED_84);
constraint int_eq_reif(X_INTRODUCED_9,3,X_INTRODUCED_85):: defines_var(X_INTRODUCED_85);
constraint int_eq_reif(X_INTRODUCED_10,3,X_INTRODUCED_86):: defines_var(X_INTRODUCED_86);
constraint int_eq_reif(X_INTRODUCED_11,3,X_INTRODUCED_87):: defines_var(X_INTRODUCED_87);
constraint int_eq_reif(X_INTRODUCED_6,4,X_INTRODUCED_88):: defines_var(X_INTRODUCED_88);
constraint int_eq_reif(X_INTRODUCED_7,4,X_INTRODUCED_89):: defines_var(X_INTRODUCED_89);
constraint int_eq_reif(X_INTRODUCED_8,4,X_INTRODUCED_90):: defines_var(X_INTRODUCED_90);
constraint int_eq_reif(X_INTRODUCED_9,4,X_INTRODUCED_91):: defines_var(X_INTRODUCED_91);
constraint int_eq_reif(X_INTRODUCED_10,4,X_INTRODUCED_92):: defines_var(X_INTRODUCED_92);
constraint int_eq_reif(X_INTRODUCED_11,4,X_INTRODUCED_93):: defines_var(X_INTRODUCED_93);
constraint int_eq_reif(X_INTRODUCED_6,5,X_INTRODUCED_94):: defines_var(X_INTRODUCED_94);
constraint int_eq_reif(X_INTRODUCED_7,5,X_INTRODUCED_95):: defines_var(X_INTRODUCED_95);
constraint int_eq_reif(X_INTRODUCED_8,5,X_INTRODUCED_96):: defines_var(X_INTRODUCED_96);
constraint int_eq_reif(X_INTRODUCED_9,5,X_INTRODUCED_97):: defines_var(X_INTRODUCED_97);
constraint int_eq_reif(X_INTRODUCED_10,5,X_INTRODUCED_98):: defines_var(X_INTRODUCED_98);
constraint int_eq_reif(X_INTRODUCED_11,5,X_INTRODUCED_99):: defines_var(X_INTRODUCED_99);
constraint int_eq_reif(X_INTRODUCED_6,6,X_INTRODUCED_100):: defines_var(X_INTRODUCED_100);
constraint int_eq_reif(X_INTRODUCED_7,6,X_INTRODUCED_101):: defines_var(X_INTRODUCED_101);
constraint int_eq_reif(X_INTRODUCED_8,6,X_INTRODUCED_102):: defines_var(X_INTRODUCED_102);
constraint int_eq_reif(X_INTRODUCED_9,6,X_INTRODUCED_103):: defines_var(X_INTRODUCED_103);
constraint int_eq_reif(X_INTRODUCED_10,6,X_INTRODUCED_104):: defines_var(X_INTRODUCED_104);
constraint int_eq_reif(X_INTRODUCED_11,6,X_INTRODUCED_105):: defines_var(X_INTRODUCED_105);
constraint int_lin_le(X_INTRODUCED_110,[X_INTRODUCED_117,X_INTRODUCED_124],-2);
constraint int_max(X_INTRODUCED_10,X_INTRODUCED_6,X_INTRODUCED_116);
constraint int_max(X_INTRODUCED_11,X_INTRODUCED_116,X_INTRODUCED_117);
constraint int_min(X_INTRODUCED_10,X_INTRODUCED_6,X_INTRODUCED_123);
constraint int_min(X_INTRODUCED_11,X_INTRODUCED_123,X_INTRODUCED_124);
constraint int_lin_le(X_INTRODUCED_110,[X_INTRODUCED_133,X_INTRODUCED_140],-2);
constraint int_max(X_INTRODUCED_7,X_INTRODUCED_6,X_INTRODUCED_132);
constraint int_max(X_INTRODUCED_9,X_INTRODUCED_132,X_INTRODUCED_133);
constraint int_min(X_INTRODUCED_7,X_INTRODUCED_6,X_INTRODUCED_139);
constraint int_min(X_INTRODUCED_9,X_INTRODUCED_139,X_INTRODUCED_140);
constraint int_lin_le(X_INTRODUCED_110,[X_INTRODUCED_149,X_INTRODUCED_156],-2);
constraint int_max(X_INTRODUCED_8,X_INTRODUCED_7,X_INTRODUCED_148);
constraint int_max(X_INTRODUCED_10,X_INTRODUCED_148,X_INTRODUCED_149);
constraint int_min(X_INTRODUCED_8,X_INTRODUCED_7,X_INTRODUCED_155);
constraint int_min(X_INTRODUCED_10,X_INTRODUCED_155,X_INTRODUCED_156);
constraint int_lin_le(X_INTRODUCED_110,[X_INTRODUCED_165,X_INTRODUCED_172],-2);
constraint int_max(X_INTRODUCED_9,X_INTRODUCED_8,X_INTRODUCED_164);
constraint int_max(X_INTRODUCED_11,X_INTRODUCED_164,X_INTRODUCED_165);
constraint int_min(X_INTRODUCED_9,X_INTRODUCED_8,X_INTRODUCED_171);
constraint int_min(X_INTRODUCED_11,X_INTRODUCED_171,X_INTRODUCED_172);
constraint int_lin_eq(X_INTRODUCED_192,[X_INTRODUCED_20,X_INTRODUCED_176,X_INTRODUCED_182,X_INTRODUCED_188],0):: defines_var(X_INTRODUCED_20);
constraint int_lin_eq(X_INTRODUCED_211,[X_INTRODUCED_21,X_INTRODUCED_196,X_INTRODUCED_201,X_INTRODUCED_207],0):: defines_var(X_INTRODUCED_21);
constraint int_lin_eq(X_INTRODUCED_227,[X_INTRODUCED_22,X_INTRODUCED_215,X_INTRODUCED_219,X_INTRODUCED_224],0):: defines_var(X_INTRODUCED_22);
constraint int_lin_eq(X_INTRODUCED_243,[X_INTRODUCED_23,X_INTRODUCED_231,X_INTRODUCED_235,X_INTRODUCED_240],0):: defines_var(X_INTRODUCED_23);
constraint int_lin_le(X_INTRODUCED_245,[X_INTRODUCED_20,X_INTRODUCED_124,X_INTRODUCED_117],3);
constraint int_lin_le(X_INTRODUCED_245,[X_INTRODUCED_21,X_INTRODUCED_140,X_INTRODUCED_133],3);
constraint int_lin_le(X_INTRODUCED_245,[X_INTRODUCED_22,X_INTRODUCED_156,X_INTRODUCED_149],3);
constraint int_lin_le(X_INTRODUCED_245,[X_INTRODUCED_23,X_INTRODUCED_172,X_INTRODUCED_165],3);
constraint int_lin_eq(X_INTRODUCED_255,[cost,X_INTRODUCED_20,X_INTRODUCED_21,X_INTRODUCED_22,X_INTRODUCED_23],42):: defines_var(cost);
constraint int_lin_le(X_INTRODUCED_108,[X_INTRODUCED_0,X_INTRODUCED_5],-1);
constraint int_lin_eq(X_INTRODUCED_268,[penSum,X_INTRODUCED_261,X_INTRODUCED_263,X_INTRODUCED_264,X_INTRODUCED_265,X_INTRODUCED_266],0):: defines_var(penSum);
constraint int_eq_reif(X_INTRODUCED_30,6,X_INTRODUCED_24):: defines_var(X_INTRODUCED_24);
constraint int_eq_reif(X_INTRODUCED_45,1,X_INTRODUCED_25):: defines_var(X_INTRODUCED_25);
constraint int_le_reif(4,X_INTRODUCED_48,X_INTRODUCED_26):: defines_var(X_INTRODUCED_26);
constraint int_le_reif(X_INTRODUCED_61,9,X_INTRODUCED_27):: defines_var(X_INTRODUCED_27);
constraint int_lin_eq([1,1,-1],[X_INTRODUCED_30,X_INTRODUCED_33,X_INTRODUCED_34],0):: defines_var(X_INTRODUCED_34);
constraint int_lin_eq([1,1,1,-1],[X_INTRODUCED_30,X_INTRODUCED_33,X_INTRODUCED_36,X_INTRODUCED_37],0):: defines_var(X_INTRODUCED_37);
constraint int_lin_eq([1,1,1,1,-1],[X_INTRODUCED_30,X_INTRODUCED_33,X_INTRODUCED_36,X_INTRODUCED_39,X_INTRODUCED_40],0):: defines_var(X_INTRODUCED_40);
constraint int_lin_eq([1,1,1,1,1,-1],[X_INTRODUCED_30,X_INTRODUCED_33,X_INTRODUCED_36,X_INTRODUCED_39,X_INTRODUCED_42,X_INTRODUCED_43],0):: defines_var(X_INTRODUCED_43);
constraint int_lin_eq([1,1,1,1,1,1,-1],[X_INTRODUCED_30,X_INTRODUCED_33,X_INTRODUCED_36,X_INTRODUCED_39,X_INTRODUCED_42,X_INTRODUCED_45,X_INTRODUCED_46],0):: defines_var(X_INTRODUCED_46);
constraint int_lin_eq([1,-1],[X_INTRODUCED_117,X_INTRODUCED_56],-1):: defines_var(X_INTRODUCED_56);
constraint int_lin_eq([1,-1],[X_INTRODUCED_133,X_INTRODUCED_59],-1):: defines_var(X_INTRODUCED_59);
constraint int_lin_eq([1,-1],[X_INTRODUCED_149,X_INTRODUCED_62],-1):: defines_var(X_INTRODUCED_62);
constraint int_lin_eq([1,-1],[X_INTRODUCED_165,X_INTRODUCED_65],-1):: defines_var(X_INTRODUCED_65);
constraint int_eq_reif(X_INTRODUCED_0,1,X_INTRODUCED_70):: defines_var(X_INTRODUCED_70);
constraint int_eq_reif(X_INTRODUCED_0,2,X_INTRODUCED_71):: defines_var(X_INTRODUCED_71);
constraint int_eq_reif(X_INTRODUCED_0,3,X_INTRODUCED_72):: defines_var(X_INTRODUCED_72);
constraint int_eq_reif(X_INTRODUCED_0,4,X_INTRODUCED_73):: defines_var(X_INTRODUCED_73);
constraint int_eq_reif(X_INTRODUCED_0,5,X_INTRODUCED_74):: defines_var(X_INTRODUCED_74);
constraint int_eq_reif(X_INTRODUCED_0,6,X_INTRODUCED_75):: defines_var(X_INTRODUCED_75);
constraint int_eq_reif(X_INTRODUCED_1,1,X_INTRODUCED_76):: defines_var(X_INTRODUCED_76);
constraint int_eq_reif(X_INTRODUCED_1,2,X_INTRODUCED_77):: defines_var(X_INTRODUCED_77);
constraint int_eq_reif(X_INTRODUCED_1,3,X_INTRODUCED_78):: defines_var(X_INTRODUCED_78);
constraint int_eq_reif(X_INTRODUCED_1,4,X_INTRODUCED_79):: defines_var(X_INTRODUCED_79);
constraint int_eq_reif(X_INTRODUCED_1,5,X_INTRODUCED_80):: defines_var(X_INTRODUCED_80);
constraint int_eq_reif(X_INTRODUCED_1,6,X_INTRODUCED_81):: defines_var(X_INTRODUCED_81);
constraint int_eq_reif(X_INTRODUCED_2,1,X_INTRODUCED_82):: defines_var(X_INTRODUCED_82);
constraint int_eq_reif(X_INTRODUCED_2,2,X_INTRODUCED_83):: defines_var(X_INTRODUCED_83);
constraint int_eq_reif(X_INTRODUCED_2,3,X_INTRODUCED_84):: defines_var(X_INTRODUCED_84);
constraint int_eq_reif(X_INTRODUCED_2,4,X_INTRODUCED_85):: defines_var(X_INTRODUCED_85);
constraint int_eq_reif(X_INTRODUCED_2,5,X_INTRODUCED_86):: defines_var(X_INTRODUCED_86);
constraint int_eq_reif(X_INTRODUCED_2,6,X_INTRODUCED_87):: defines_var(X_INTRODUCED_87);
constraint int_eq_reif(X_INTRODUCED_3,1,X_INTRODUCED_88):: defines_var(X_INTRODUCED_88);
constraint int_eq_reif(X_INTRODUCED_3,2,X_INTRODUCED_89):: defines_var(X_INTRODUCED_89);
constraint int_eq_reif(X_INTRODUCED_3,3,X_INTRODUCED_90):: defines_var(X_INTRODUCED_90);
constraint int_eq_reif(X_INTRODUCED_3,4,X_INTRODUCED_91):: defines_var(X_INTRODUCED_91);
constraint int_eq_reif(X_INTRODUCED_3,5,X_INTRODUCED_92):: defines_var(X_INTRODUCED_92);
constraint int_eq_reif(X_INTRODUCED_3,6,X_INTRODUCED_93):: defines_var(X_INTRODUCED_93);
constraint int_eq_reif(X_INTRODUCED_4,1,X_INTRODUCED_94):: defines_var(X_INTRODUCED_94);
constraint int_eq_reif(X_INTRODUCED_4,2,X_INTRODUCED_95):: defines_var(X_INTRODUCED_95);
constraint int_eq_reif(X_INTRODUCED_4,3,X_INTRODUCED_96):: defines_var(X_INTRODUCED_96);
constraint int_eq_reif(X_INTRODUCED_4,4,X_INTRODUCED_97):: defines_var(X_INTRODUCED_97);
constraint int_eq_reif(X_INTRODUCED_4,5,X_INTRODUCED_98):: defines_var(X_INTRODUCED_98);
constraint int_eq_reif(X_INTRODUCED_4,6,X_INTRODUCED_99):: defines_var(X_INTRODUCED_99);
constraint int_eq_reif(X_INTRODUCED_5,1,X_INTRODUCED_100):: defines_var(X_INTRODUCED_100);
constraint int_eq_reif(X_INTRODUCED_5,2,X_INTRODUCED_101):: defines_var(X_INTRODUCED_101);
constraint int_eq_reif(X_INTRODUCED_5,3,X_INTRODUCED_102):: defines_var(X_INTRODUCED_102);
constraint int_eq_reif(X_INTRODUCED_5,4,X_INTRODUCED_103):: defines_var(X_INTRODUCED_103);
constraint int_eq_reif(X_INTRODUCED_5,5,X_INTRODUCED_104):: defines_var(X_INTRODUCED_104);
constraint int_eq_reif(X_INTRODUCED_5,6,X_INTRODUCED_105):: defines_var(X_INTRODUCED_105);
constraint int_lin_le_reif(X_INTRODUCED_108,[X_INTRODUCED_7,X_INTRODUCED_117],0,X_INTRODUCED_173):: defines_var(X_INTRODUCED_173);
constraint int_lin_le_reif(X_INTRODUCED_108,[X_INTRODUCED_124,X_INTRODUCED_7],0,X_INTRODUCED_174):: defines_var(X_INTRODUCED_174);
constraint array_bool_and([X_INTRODUCED_173,X_INTRODUCED_174],X_INTRODUCED_175):: defines_var(X_INTRODUCED_175);
constraint bool2int(X_INTRODUCED_175,X_INTRODUCED_176):: defines_var(X_INTRODUCED_176);
constraint int_lin_le_reif(X_INTRODUCED_108,[X_INTRODUCED_8,X_INTRODUCED_117],0,X_INTRODUCED_179):: defines_var(X_INTRODUCED_179);
constraint int_lin_le_reif(X_INTRODUCED_108,[X_INTRODUCED_124,X_INTRODUCED_8],0,X_INTRODUCED_180):: defines_var(X_INTRODUCED_180);
constraint array_bool_and([X_INTRODUCED_179,X_INTRODUCED_180],X_INTRODUCED_181):: defines_var(X_INTRODUCED_181);
constraint bool2int(X_INTRODUCED_181,X_INTRODUCED_182):: defines_var(X_INTRODUCED_182);
constraint int_lin_le_reif(X_INTRODUCED_108,[X_INTRODUCED_9,X_INTRODUCED_117],0,X_INTRODUCED_185):: defines_var(X_INTRODUCED_185);
constraint int_lin_le_reif(X_INTRODUCED_108,[X_INTRODUCED_124,X_INTRODUCED_9],0,X_INTRODUCED_186):: defines_var(X_INTRODUCED_186);
constraint array_bool_and([X_INTRODUCED_185,X_INTRODUCED_186],X_INTRODUCED_187):: defines_var(X_INTRODUCED_187);
constraint bool2int(X_INTRODUCED_187,X_INTRODUCED_188):: defines_var(X_INTRODUCED_188);
constraint int_lin_le_reif(X_INTRODUCED_108,[X_INTRODUCED_8,X_INTRODUCED_133],0,X_INTRODUCED_193):: defines_var(X_INTRODUCED_193);
constraint int_lin_le_reif(X_INTRODUCED_108,[X_INTRODUCED_140,X_INTRODUCED_8],0,X_INTRODUCED_194):: defines_var(X_INTRODUCED_194);
constraint array_bool_and([X_INTRODUCED_193,X_INTRODUCED_194],X_INTRODUCED_195):: defines_var(X_INTRODUCED_195);
constraint bool2int(X_INTRODUCED_195,X_INTRODUCED_196):: defines_var(X_INTRODUCED_196);
constraint int_lin_le_reif(X_INTRODUCED_108,[X_INTRODUCED_10,X_INTRODUCED_133],0,X_INTRODUCED_198):: defines_var(X_INTRODUCED_198);
constraint int_lin_le_reif(X_INTRODUCED_108,[X_INTRODUCED_140,X_INTRODUCED_10],0,X_INTRODUCED_199):: defines_var(X_INTRODUCED_199);
constraint array_bool_and([X_INTRODUCED_198,X_INTRODUCED_199],X_INTRODUCED_200):: defines_var(X_INTRODUCED_200);
constraint bool2int(X_INTRODUCED_200,X_INTRODUCED_201):: defines_var(X_INTRODUCED_201);
constraint int_lin_le_reif(X_INTRODUCED_108,[X_INTRODUCED_11,X_INTRODUCED_133],0,X_INTRODUCED_204):: defines_var(X_INTRODUCED_204);
constraint int_lin_le_reif(X_INTRODUCED_108,[X_INTRODUCED_140,X_INTRODUCED_11],0,X_INTRODUCED_205):: defines_var(X_INTRODUCED_205);
constraint array_bool_and([X_INTRODUCED_204,X_INTRODUCED_205],X_INTRODUCED_206):: defines_var(X_INTRODUCED_206);
constraint bool2int(X_INTRODUCED_206,X_INTRODUCED_207):: defines_var(X_INTRODUCED_207);
constraint int_lin_le_reif(X_INTRODUCED_108,[X_INTRODUCED_6,X_INTRODUCED_149],0,X_INTRODUCED_212):: defines_var(X_INTRODUCED_212);
constraint int_lin_le_reif(X_INTRODUCED_108,[X_INTRODUCED_156,X_INTRODUCED_6],0,X_INTRODUCED_213):: defines_var(X_INTRODUCED_213);
constraint array_bool_and([X_INTRODUCED_212,X_INTRODUCED_213],X_INTRODUCED_214):: defines_var(X_INTRODUCED_214);
constraint bool2int(X_INTRODUCED_214,X_INTRODUCED_215):: defines_var(X_INTRODUCED_215);
constraint int_lin_le_reif(X_INTRODUCED_108,[X_INTRODUCED_9,X_INTRODUCED_149],0,X_INTRODUCED_216):: defines_var(X_INTRODUCED_216);
constraint int_lin_le_reif(X_INTRODUCED_108,[X_INTRODUCED_156,X_INTRODUCED_9],0,X_INTRODUCED_217):: defines_var(X_INTRODUCED_217);
constraint array_bool_and([X_INTRODUCED_216,X_INTRODUCED_217],X_INTRODUCED_218):: defines_var(X_INTRODUCED_218);
constraint bool2int(X_INTRODUCED_218,X_INTRODUCED_219):: defines_var(X_INTRODUCED_219);
constraint int_lin_le_reif(X_INTRODUCED_108,[X_INTRODUCED_11,X_INTRODUCED_149],0,X_INTRODUCED_221):: defines_var(X_INTRODUCED_221);
constraint int_lin_le_reif(X_INTRODUCED_108,[X_INTRODUCED_156,X_INTRODUCED_11],0,X_INTRODUCED_222):: defines_var(X_INTRODUCED_222);
constraint array_bool_and([X_INTRODUCED_221,X_INTRODUCED_222],X_INTRODUCED_223):: defines_var(X_INTRODUCED_223);
constraint bool2int(X_INTRODUCED_223,X_INTRODUCED_224):: defines_var(X_INTRODUCED_224);
constraint int_lin_le_reif(X_INTRODUCED_108,[X_INTRODUCED_6,X_INTRODUCED_165],0,X_INTRODUCED_228):: defines_var(X_INTRODUCED_228);
constraint int_lin_le_reif(X_INTRODUCED_108,[X_INTRODUCED_172,X_INTRODUCED_6],0,X_INTRODUCED_229):: defines_var(X_INTRODUCED_229);
constraint array_bool_and([X_INTRODUCED_228,X_INTRODUCED_229],X_INTRODUCED_230):: defines_var(X_INTRODUCED_230);
constraint bool2int(X_INTRODUCED_230,X_INTRODUCED_231):: defines_var(X_INTRODUCED_231);
constraint int_lin_le_reif(X_INTRODUCED_108,[X_INTRODUCED_7,X_INTRODUCED_165],0,X_INTRODUCED_232):: defines_var(X_INTRODUCED_232);
constraint int_lin_le_reif(X_INTRODUCED_108,[X_INTRODUCED_172,X_INTRODUCED_7],0,X_INTRODUCED_233):: defines_var(X_INTRODUCED_233);
constraint array_bool_and([X_INTRODUCED_232,X_INTRODUCED_233],X_INTRODUCED_234):: defines_var(X_INTRODUCED_234);
constraint bool2int(X_INTRODUCED_234,X_INTRODUCED_235):: defines_var(X_INTRODUCED_235);
constraint int_lin_le_reif(X_INTRODUCED_108,[X_INTRODUCED_10,X_INTRODUCED_165],0,X_INTRODUCED_237):: defines_var(X_INTRODUCED_237);
constraint int_lin_le_reif(X_INTRODUCED_108,[X_INTRODUCED_172,X_INTRODUCED_10],0,X_INTRODUCED_238):: defines_var(X_INTRODUCED_238);
constraint array_bool_and([X_INTRODUCED_237,X_INTRODUCED_238],X_INTRODUCED_239):: defines_var(X_INTRODUCED_239);
constraint bool2int(X_INTRODUCED_239,X_INTRODUCED_240):: defines_var(X_INTRODUCED_240);
constraint bool_eq_reif(X_INTRODUCED_24,false,X_INTRODUCED_256):: defines_var(X_INTRODUCED_256);
constraint bool_eq_reif(X_INTRODUCED_25,false,X_INTRODUCED_257):: defines_var(X_INTRODUCED_257);
constraint bool_eq_reif(X_INTRODUCED_26,false,X_INTRODUCED_258):: defines_var(X_INTRODUCED_258);
constraint bool_eq_reif(X_INTRODUCED_27,false,X_INTRODUCED_259):: defines_var(X_INTRODUCED_259);
constraint bool_eq_reif(X_INTRODUCED_28,false,X_INTRODUCED_260):: defines_var(X_INTRODUCED_260);
constraint bool2int(X_INTRODUCED_256,X_INTRODUCED_261):: defines_var(X_INTRODUCED_261);
constraint bool2int(X_INTRODUCED_257,X_INTRODUCED_263):: defines_var(X_INTRODUCED_263);
constraint bool2int(X_INTRODUCED_258,X_INTRODUCED_264):: defines_var(X_INTRODUCED_264);
constraint bool2int(X_INTRODUCED_259,X_INTRODUCED_265):: defines_var(X_INTRODUCED_265);
constraint bool2int(X_INTRODUCED_260,X_INTRODUCED_266):: defines_var(X_INTRODUCED_266);
solve :: int_search(s,first_fail,indomain,complete) minimize penSum;
